c Result of efficient AIG-to-CNF conversion using package CNF
p cnf 512 2110
-2 3 336 0
-2 -3 -336 0
2 -3 336 0
2 3 -336 0
-3 4 54 0
-3 -4 -54 0
3 -4 54 0
3 4 -54 0
-4 -5 -32 0
-4 5 32 0
4 5 -32 0
4 -5 32 0
-5 -6 -21 0
-5 6 21 0
5 6 -21 0
5 -6 21 0
-6 -7 -12 0
-6 7 12 0
6 7 -12 0
6 -7 12 0
7 -8 -9 0
-7 8 0
-7 9 0
8 -496 -501 0
-8 496 0
-8 501 0
9 -10 -11 0
-9 10 0
-9 11 0
10 -501 -509 0
-10 501 0
-10 509 0
11 -496 -502 0
-11 496 0
-11 502 0
12 -13 -15 0
-12 13 0
-12 15 0
-13 14 0
13 -14 0
14 -8 9 0
-14 8 0
-14 -9 0
15 -16 -17 0
-15 16 0
-15 17 0
-16 -10 -11 0
-16 10 11 0
16 10 -11 0
16 -10 11 0
-17 18 20 0
-17 19 20 0
-17 18 19 0
17 -18 -19 0
17 -19 -20 0
17 -18 -20 0
18 -495 -501 0
-18 495 0
-18 501 0
19 -502 -509 0
-19 502 0
-19 509 0
20 -496 -506 0
-20 496 0
-20 506 0
21 -22 -23 0
-21 22 0
-21 23 0
-22 -13 -15 0
-22 13 15 0
22 13 -15 0
22 -13 15 0
23 -24 -25 0
-23 24 0
-23 25 0
-24 16 17 0
-24 -16 -17 0
24 -16 17 0
24 16 -17 0
25 -26 -28 0
-25 26 0
-25 28 0
-26 20 27 0
-26 -20 -27 0
26 -20 27 0
26 20 -27 0
-27 -18 -19 0
-27 18 19 0
27 18 -19 0
27 -18 19 0
-28 29 31 0
-28 30 31 0
-28 29 30 0
28 -29 -30 0
28 -30 -31 0
28 -29 -31 0
29 -495 -502 0
-29 495 0
-29 502 0
30 -506 -509 0
-30 506 0
-30 509 0
31 -496 -505 0
-31 496 0
-31 505 0
32 -33 -34 0
-32 33 0
-32 34 0
-33 -22 -23 0
-33 22 23 0
33 22 -23 0
33 -22 23 0
34 -35 -36 0
-34 35 0
-34 36 0
-35 -24 -25 0
-35 24 25 0
35 24 -25 0
35 -24 25 0
-36 37 53 0
-36 37 38 0
-36 38 53 0
36 -38 -53 0
36 -37 -53 0
36 -37 -38 0
-37 26 28 0
-37 -26 -28 0
37 -26 28 0
37 26 -28 0
38 -39 -40 0
-38 39 0
-38 40 0
39 -501 -511 0
-39 501 0
-39 511 0
-40 41 47 0
-40 -41 -47 0
40 -41 47 0
40 41 -47 0
-41 42 45 0
-41 -42 -45 0
41 -42 45 0
41 42 -45 0
42 -43 -44 0
-42 43 0
-42 44 0
43 -498 -501 0
-43 498 0
-43 501 0
44 -502 -511 0
-44 502 0
-44 511 0
-45 31 46 0
-45 -31 -46 0
45 -31 46 0
45 31 -46 0
-46 -29 -30 0
-46 29 30 0
46 29 -30 0
46 -29 30 0
-47 48 51 0
-47 48 52 0
47 -48 0
47 -51 -52 0
48 -49 -50 0
-48 49 0
-48 50 0
49 -495 -506 0
-49 495 0
-49 506 0
50 -505 -509 0
-50 505 0
-50 509 0
51 -496 -503 0
-51 496 0
-51 503 0
-52 -49 -50 0
-52 49 50 0
52 49 -50 0
52 -49 50 0
-53 42 45 0
-53 45 47 0
-53 42 47 0
53 -45 -47 0
53 -42 -45 0
53 -42 -47 0
-54 55 77 0
-54 55 56 0
-54 56 77 0
54 -56 -77 0
54 -55 -77 0
54 -55 -56 0
-55 -33 -34 0
-55 33 34 0
55 33 -34 0
55 -33 34 0
56 -57 -58 0
-56 57 0
-56 58 0
-57 35 36 0
-57 -35 -36 0
57 -35 36 0
57 35 -36 0
58 -59 -61 0
-58 59 0
-58 61 0
-59 53 60 0
-59 -53 -60 0
59 -53 60 0
59 53 -60 0
-60 -37 -38 0
-60 37 38 0
60 37 -38 0
60 -37 38 0
-61 62 76 0
-61 62 63 0
-61 63 76 0
61 -63 -76 0
61 -62 -76 0
61 -62 -63 0
-62 39 40 0
-62 -39 -40 0
62 -39 40 0
62 39 -40 0
63 -64 -65 0
-63 64 0
-63 65 0
-64 -43 -44 0
-64 43 44 0
64 43 -44 0
64 -43 44 0
-65 66 72 0
-65 -66 -72 0
65 -66 72 0
65 66 -72 0
-66 67 71 0
-66 -67 -71 0
66 -67 71 0
66 67 -71 0
-67 68 70 0
-67 69 70 0
-67 68 69 0
67 -68 -69 0
67 -69 -70 0
67 -68 -70 0
68 -499 -501 0
-68 499 0
-68 501 0
69 -498 -502 0
-69 498 0
-69 502 0
70 -506 -511 0
-70 506 0
-70 511 0
-71 51 52 0
-71 -51 -52 0
71 -51 52 0
71 51 -52 0
-72 73 75 0
-72 74 75 0
-72 73 74 0
72 -73 -74 0
72 -74 -75 0
72 -73 -75 0
73 -495 -505 0
-73 495 0
-73 505 0
74 -503 -509 0
-74 503 0
-74 509 0
75 -496 -504 0
-75 496 0
-75 504 0
-76 67 71 0
-76 71 72 0
-76 67 72 0
76 -67 -72 0
76 -71 -72 0
76 -67 -71 0
-77 78 219 0
-77 219 326 0
-77 219 328 0
77 -219 0
77 -78 -326 -328 0
78 -79 -148 185 -186 0
78 -79 -148 -185 186 0
-78 148 0
-78 -185 -186 0
-78 79 0
-78 185 186 0
79 -80 112 -113 0
79 -80 -112 113 0
-79 80 0
-79 112 113 0
-79 -112 -113 0
-80 -81 -82 0
-80 81 82 0
80 81 -82 0
80 -81 82 0
-81 -57 -58 0
-81 57 58 0
81 57 -58 0
81 -57 58 0
82 -83 -84 0
-82 83 0
-82 84 0
-83 59 61 0
-83 -59 -61 0
83 -59 61 0
83 59 -61 0
84 -85 -87 0
-84 85 0
-84 87 0
-85 76 86 0
-85 -76 -86 0
85 -76 86 0
85 76 -86 0
-86 -62 -63 0
-86 62 63 0
86 62 -63 0
86 -62 63 0
-87 88 89 0
-87 89 111 0
-87 88 111 0
87 -88 -111 0
87 -89 -111 0
87 -88 -89 0
-88 64 65 0
-88 -64 -65 0
88 -64 65 0
88 64 -65 0
-89 90 92 0
-89 92 102 0
-89 90 102 0
89 -90 -102 0
89 -92 -102 0
89 -90 -92 0
-90 -91 -70 0
-90 91 70 0
90 91 -70 0
90 -91 70 0
-91 -68 -69 0
-91 68 69 0
91 68 -69 0
91 -68 69 0
-92 93 100 0
-92 94 95 0
-92 94 100 0
-92 93 95 0
92 -93 -94 0
92 -95 -100 0
93 -497 -501 0
-93 497 0
-93 501 0
94 -497 -501 -502 -510 0
-94 510 0
-94 497 0
-94 502 0
-94 501 0
-95 -96 -99 0
-95 96 99 0
95 96 -99 0
95 -96 99 0
-96 -97 -98 0
-96 97 98 0
96 97 -98 0
96 -97 98 0
97 -499 -502 0
-97 499 0
-97 502 0
98 -498 -506 0
-98 498 0
-98 506 0
99 -505 -511 0
-99 505 0
-99 511 0
-100 101 0
100 -101 0
101 -93 94 0
-101 93 0
-101 -94 0
-102 103 107 0
-102 -103 -107 0
102 -103 107 0
102 103 -107 0
-103 104 105 0
-103 -104 -105 0
103 -104 105 0
103 104 -105 0
-104 97 99 0
-104 98 99 0
-104 97 98 0
104 -97 -98 0
104 -98 -99 0
104 -97 -99 0
-105 75 106 0
-105 -75 -106 0
105 -75 106 0
105 75 -106 0
-106 -73 -74 0
-106 73 74 0
106 73 -74 0
106 -73 74 0
-107 108 110 0
-107 109 110 0
-107 108 109 0
107 -108 -109 0
107 -109 -110 0
107 -108 -110 0
108 -495 -503 0
-108 495 0
-108 503 0
109 -504 -509 0
-109 504 0
-109 509 0
110 -496 -508 0
-110 496 0
-110 508 0
-111 104 105 0
-111 105 107 0
-111 104 107 0
111 -104 -107 0
111 -105 -107 0
111 -104 -105 0
-112 -83 -84 0
-112 83 84 0
112 83 -84 0
112 -83 84 0
113 -114 -115 0
-113 114 0
-113 115 0
-114 85 87 0
-114 -85 -87 0
114 -85 87 0
114 85 -87 0
115 -116 -118 0
-115 116 0
-115 118 0
-116 111 117 0
-116 -111 -117 0
116 -111 117 0
116 111 -117 0
-117 88 89 0
-117 -88 -89 0
117 -88 89 0
117 88 -89 0
-118 119 121 0
-118 121 147 0
-118 119 147 0
118 -119 -147 0
118 -121 -147 0
118 -119 -121 0
-119 102 120 0
-119 -102 -120 0
119 -102 120 0
119 102 -120 0
-120 90 92 0
-120 -90 -92 0
120 -90 92 0
120 90 -92 0
-121 122 123 0
-121 123 138 0
-121 122 138 0
121 -122 -138 0
121 -123 -138 0
121 -122 -123 0
-122 95 100 0
-122 -95 -100 0
122 -95 100 0
122 95 -100 0
-123 124 127 0
-123 127 133 0
-123 124 133 0
123 -124 -133 0
123 -127 -133 0
123 -124 -127 0
-124 -125 -126 0
-124 125 126 0
124 125 -126 0
124 -125 126 0
125 -501 -510 0
-125 501 0
-125 510 0
126 -497 -502 0
-126 497 0
-126 502 0
-127 128 129 0
-127 128 130 0
127 -128 0
127 -129 -130 0
128 -500 -501 -502 -510 0
-128 510 0
-128 500 0
-128 502 0
-128 501 0
129 -497 -506 0
-129 497 0
-129 506 0
-130 -131 -132 0
-130 131 132 0
130 131 -132 0
130 -131 132 0
131 -500 -501 0
-131 500 0
-131 501 0
132 -502 -510 0
-132 502 0
-132 510 0
-133 -134 -137 0
-133 134 137 0
133 134 -137 0
133 -134 137 0
-134 -135 -136 0
-134 135 136 0
134 135 -136 0
134 -135 136 0
135 -499 -506 0
-135 499 0
-135 506 0
136 -498 -505 0
-136 498 0
-136 505 0
137 -503 -511 0
-137 503 0
-137 511 0
-138 139 143 0
-138 -139 -143 0
138 -139 143 0
138 139 -143 0
-139 140 141 0
-139 -140 -141 0
139 -140 141 0
139 140 -141 0
-140 135 137 0
-140 136 137 0
-140 135 136 0
140 -135 -136 0
140 -136 -137 0
140 -135 -137 0
-141 110 142 0
-141 -110 -142 0
141 -110 142 0
141 110 -142 0
-142 -108 -109 0
-142 108 109 0
142 108 -109 0
142 -108 109 0
-143 144 146 0
-143 145 146 0
-143 144 145 0
143 -144 -145 0
143 -145 -146 0
143 -144 -146 0
144 -495 -504 0
-144 495 0
-144 504 0
145 -508 -509 0
-145 508 0
-145 509 0
146 -494 -496 0
-146 494 0
-146 496 0
-147 140 141 0
-147 141 143 0
-147 140 143 0
147 -140 -143 0
147 -141 -143 0
147 -140 -141 0
-148 -149 -150 0
-148 149 150 0
148 149 -150 0
148 -149 150 0
-149 -114 -115 0
-149 114 115 0
149 114 -115 0
149 -114 115 0
150 -151 -152 0
-150 151 0
-150 152 0
-151 116 118 0
-151 -116 -118 0
151 -116 118 0
151 116 -118 0
152 -153 -155 0
-152 153 0
-152 155 0
-153 147 154 0
-153 -147 -154 0
153 -147 154 0
153 147 -154 0
-154 119 121 0
-154 -119 -121 0
154 -119 121 0
154 119 -121 0
-155 156 158 0
-155 158 184 0
-155 156 184 0
155 -156 -184 0
155 -158 -184 0
155 -156 -158 0
-156 138 157 0
-156 -138 -157 0
156 -138 157 0
156 138 -157 0
-157 122 123 0
-157 -122 -123 0
157 -122 123 0
157 122 -123 0
-158 159 161 0
-158 161 175 0
-158 159 175 0
158 -159 -175 0
158 -161 -175 0
158 -159 -161 0
-159 133 160 0
-159 -133 -160 0
159 -133 160 0
159 133 -160 0
-160 124 127 0
-160 -124 -127 0
160 -124 127 0
160 124 -127 0
-161 163 169 0
-161 162 174 0
-161 162 169 0
-161 163 174 0
161 -169 -174 0
161 -162 -163 0
-162 129 130 0
-162 -129 -130 0
162 -129 130 0
162 129 -130 0
-163 164 165 0
-163 164 166 0
163 -164 0
163 -165 -166 0
164 -500 -502 -506 -510 0
-164 510 0
-164 500 0
-164 506 0
-164 502 0
165 -497 -505 0
-165 497 0
-165 505 0
-166 -167 -168 0
-166 167 168 0
166 167 -168 0
166 -167 168 0
167 -500 -502 0
-167 500 0
-167 502 0
168 -506 -510 0
-168 506 0
-168 510 0
-169 -170 -173 0
-169 170 173 0
169 170 -173 0
169 -170 173 0
-170 -171 -172 0
-170 171 172 0
170 171 -172 0
170 -171 172 0
171 -499 -505 0
-171 499 0
-171 505 0
172 -498 -503 0
-172 498 0
-172 503 0
173 -504 -511 0
-173 504 0
-173 511 0
-174 162 163 0
-174 -162 -163 0
174 -162 163 0
174 162 -163 0
-175 176 180 0
-175 -176 -180 0
175 -176 180 0
175 176 -180 0
-176 177 178 0
-176 -177 -178 0
176 -177 178 0
176 177 -178 0
-177 171 173 0
-177 172 173 0
-177 171 172 0
177 -171 -172 0
177 -172 -173 0
177 -171 -173 0
-178 146 179 0
-178 -146 -179 0
178 -146 179 0
178 146 -179 0
-179 -144 -145 0
-179 144 145 0
179 144 -145 0
179 -144 145 0
-180 181 183 0
-180 182 183 0
-180 181 182 0
180 -181 -182 0
180 -182 -183 0
180 -181 -183 0
181 -495 -508 0
-181 495 0
-181 508 0
182 -494 -509 0
-182 494 0
-182 509 0
183 -496 -507 0
-183 496 0
-183 507 0
-184 177 178 0
-184 178 180 0
-184 177 180 0
184 -177 -180 0
184 -178 -180 0
184 -177 -178 0
-185 -151 -152 0
-185 151 152 0
185 151 -152 0
185 -151 152 0
186 -187 -188 0
-186 187 0
-186 188 0
-187 153 155 0
-187 -153 -155 0
187 -153 155 0
187 153 -155 0
188 -189 -191 0
-188 189 0
-188 191 0
-189 184 190 0
-189 -184 -190 0
189 -184 190 0
189 184 -190 0
-190 156 158 0
-190 -156 -158 0
190 -156 158 0
190 156 -158 0
-191 192 194 0
-191 194 218 0
-191 192 218 0
191 -192 -218 0
191 -194 -218 0
191 -192 -194 0
-192 175 193 0
-192 -175 -193 0
192 -175 193 0
192 175 -193 0
-193 159 161 0
-193 -159 -161 0
193 -159 161 0
193 159 -161 0
-194 195 196 0
-194 196 210 0
-194 195 210 0
194 -195 -210 0
194 -196 -210 0
194 -195 -196 0
-195 169 174 0
-195 -169 -174 0
195 -169 174 0
195 169 -174 0
-196 198 204 0
-196 197 209 0
-196 197 204 0
-196 198 209 0
196 -204 -209 0
196 -197 -198 0
-197 165 166 0
-197 -165 -166 0
197 -165 166 0
197 165 -166 0
-198 199 200 0
-198 199 201 0
198 -199 0
198 -200 -201 0
199 -500 -505 -506 -510 0
-199 510 0
-199 500 0
-199 506 0
-199 505 0
200 -497 -503 0
-200 497 0
-200 503 0
-201 -202 -203 0
-201 202 203 0
201 202 -203 0
201 -202 203 0
202 -500 -506 0
-202 500 0
-202 506 0
203 -505 -510 0
-203 505 0
-203 510 0
-204 -205 -208 0
-204 205 208 0
204 205 -208 0
204 -205 208 0
-205 -206 -207 0
-205 206 207 0
205 206 -207 0
205 -206 207 0
206 -499 -503 0
-206 499 0
-206 503 0
207 -498 -504 0
-207 498 0
-207 504 0
208 -508 -511 0
-208 508 0
-208 511 0
-209 197 198 0
-209 -197 -198 0
209 -197 198 0
209 197 -198 0
-210 -211 -215 0
-210 211 215 0
210 211 -215 0
210 -211 215 0
-211 212 213 0
-211 -212 -213 0
211 -212 213 0
211 212 -213 0
-212 206 208 0
-212 207 208 0
-212 206 207 0
212 -206 -207 0
212 -207 -208 0
212 -206 -208 0
-213 183 214 0
-213 -183 -214 0
213 -183 214 0
213 183 -214 0
-214 -181 -182 0
-214 181 182 0
214 181 -182 0
214 -181 182 0
215 -216 -217 0
-215 216 0
-215 217 0
216 -494 -495 0
-216 494 0
-216 495 0
217 -507 -509 0
-217 507 0
-217 509 0
-218 212 213 0
-218 213 215 0
-218 212 215 0
218 -213 -215 0
218 -212 -213 0
218 -212 -215 0
-219 220 79 222 0
-219 220 221 222 0
219 -220 0
219 -222 0
219 -79 -221 0
-220 82 113 0
-220 81 112 0
-220 81 113 0
-220 81 82 0
-220 82 112 0
220 -81 -82 0
220 -81 -112 -113 0
220 -82 -112 -113 0
-221 150 186 0
-221 149 185 0
-221 149 186 0
-221 149 150 0
-221 150 185 0
221 -149 -150 0
221 -149 -185 -186 0
221 -150 -185 -186 0
222 -78 -223 0
222 -78 -281 -283 0
-222 78 0
-222 223 281 0
-222 223 283 0
-223 225 254 0
-223 224 253 0
-223 224 254 0
-223 224 225 0
-223 225 253 0
223 -224 -225 0
223 -224 -253 -254 0
223 -225 -253 -254 0
-224 -187 -188 0
-224 187 188 0
224 187 -188 0
224 -187 188 0
225 -226 -227 0
-225 226 0
-225 227 0
-226 189 191 0
-226 -189 -191 0
226 -189 191 0
226 189 -191 0
227 -228 -230 0
-227 228 0
-227 230 0
-228 218 229 0
-228 -218 -229 0
228 -218 229 0
228 218 -229 0
-229 192 194 0
-229 -192 -194 0
229 -192 194 0
229 192 -194 0
-230 231 233 0
-230 233 252 0
-230 231 252 0
230 -233 -252 0
230 -231 -233 0
230 -231 -252 0
-231 210 232 0
-231 -210 -232 0
231 -210 232 0
231 210 -232 0
-232 195 196 0
-232 -195 -196 0
232 -195 196 0
232 195 -196 0
-233 234 235 0
-233 235 249 0
-233 234 249 0
233 -234 -249 0
233 -235 -249 0
233 -234 -235 0
-234 204 209 0
-234 -204 -209 0
234 -204 209 0
234 204 -209 0
-235 237 243 0
-235 236 248 0
-235 236 243 0
-235 237 248 0
235 -243 -248 0
235 -236 -237 0
-236 200 201 0
-236 -200 -201 0
236 -200 201 0
236 200 -201 0
-237 238 239 0
-237 238 240 0
237 -238 0
237 -239 -240 0
238 -500 -503 -505 -510 0
-238 510 0
-238 500 0
-238 505 0
-238 503 0
239 -497 -504 0
-239 497 0
-239 504 0
-240 -241 -242 0
-240 241 242 0
240 241 -242 0
240 -241 242 0
241 -500 -505 0
-241 500 0
-241 505 0
242 -503 -510 0
-242 503 0
-242 510 0
-243 -244 -247 0
-243 244 247 0
243 244 -247 0
243 -244 247 0
-244 -245 -246 0
-244 245 246 0
244 245 -246 0
244 -245 246 0
245 -499 -504 0
-245 499 0
-245 504 0
246 -498 -508 0
-246 498 0
-246 508 0
247 -494 -511 0
-247 494 0
-247 511 0
-248 236 237 0
-248 -236 -237 0
248 -236 237 0
248 236 -237 0
-249 250 251 0
-249 -250 -251 0
249 -250 251 0
249 250 -251 0
-250 -216 -217 0
-250 216 217 0
250 216 -217 0
250 -216 217 0
-251 245 247 0
-251 246 247 0
-251 245 246 0
251 -245 -246 0
251 -246 -247 0
251 -245 -247 0
252 -250 -251 0
-252 250 0
-252 251 0
-253 -226 -227 0
-253 226 227 0
253 226 -227 0
253 -226 227 0
254 -255 -256 0
-254 255 0
-254 256 0
-255 228 230 0
-255 -228 -230 0
255 -228 230 0
255 228 -230 0
256 -257 -259 0
-256 257 0
-256 259 0
-257 252 258 0
-257 -252 -258 0
257 -252 258 0
257 252 -258 0
-258 231 233 0
-258 -231 -233 0
258 -231 233 0
258 231 -233 0
-259 260 262 0
-259 262 280 0
-259 260 280 0
259 -262 -280 0
259 -260 -262 0
259 -260 -280 0
-260 249 261 0
-260 -249 -261 0
260 -249 261 0
260 249 -261 0
-261 234 235 0
-261 -234 -235 0
261 -234 235 0
261 234 -235 0
-262 263 264 0
-262 264 277 0
-262 263 277 0
262 -263 -277 0
262 -264 -277 0
262 -263 -264 0
-263 243 248 0
-263 -243 -248 0
263 -243 248 0
263 243 -248 0
-264 265 266 0
-264 266 272 0
-264 265 272 0
264 -265 -272 0
264 -266 -272 0
264 -265 -266 0
-265 239 240 0
-265 -239 -240 0
265 -239 240 0
265 239 -240 0
-266 267 268 0
-266 267 269 0
266 -267 0
266 -268 -269 0
267 -500 -503 -504 -510 0
-267 510 0
-267 500 0
-267 504 0
-267 503 0
268 -497 -508 0
-268 497 0
-268 508 0
-269 -270 -271 0
-269 270 271 0
269 270 -271 0
269 -270 271 0
270 -500 -503 0
-270 500 0
-270 503 0
271 -504 -510 0
-271 504 0
-271 510 0
-272 -273 -276 0
-272 273 276 0
272 273 -276 0
272 -273 276 0
-273 -274 -275 0
-273 274 275 0
273 274 -275 0
273 -274 275 0
274 -499 -508 0
-274 499 0
-274 508 0
275 -494 -498 0
-275 494 0
-275 498 0
276 -507 -511 0
-276 507 0
-276 511 0
-277 278 279 0
-277 -278 -279 0
277 -278 279 0
277 278 -279 0
278 -495 -507 0
-278 495 0
-278 507 0
-279 274 276 0
-279 275 276 0
-279 274 275 0
279 -274 -275 0
279 -275 -276 0
279 -274 -276 0
280 -278 -279 0
-280 278 0
-280 279 0
281 -282 253 -254 0
281 -282 -253 254 0
-281 282 0
-281 253 254 0
-281 -253 -254 0
-282 -224 -225 0
-282 224 225 0
282 224 -225 0
282 -224 225 0
-283 285 309 0
-283 284 308 0
-283 284 309 0
-283 284 285 0
-283 285 308 0
283 -284 -285 0
283 -284 -308 -309 0
283 -285 -308 -309 0
-284 -255 -256 0
-284 255 256 0
284 255 -256 0
284 -255 256 0
285 -286 -287 0
-285 286 0
-285 287 0
-286 257 259 0
-286 -257 -259 0
286 -257 259 0
286 257 -259 0
287 -288 -290 0
-287 288 0
-287 290 0
-288 280 289 0
-288 -280 -289 0
288 -280 289 0
288 280 -289 0
-289 260 262 0
-289 -260 -262 0
289 -260 262 0
289 260 -262 0
290 -291 -293 0
-290 291 0
-290 293 0
-291 277 292 0
-291 -277 -292 0
291 -277 292 0
291 277 -292 0
-292 263 264 0
-292 -263 -264 0
292 -263 264 0
292 263 -264 0
-293 294 296 0
-293 296 307 0
-293 294 307 0
293 -296 -307 0
293 -294 -296 0
293 -294 -307 0
-294 272 295 0
-294 -272 -295 0
294 -272 295 0
294 272 -295 0
-295 265 266 0
-295 -265 -266 0
295 -265 266 0
295 265 -266 0
-296 297 298 0
-296 298 304 0
-296 297 304 0
296 -297 -304 0
296 -298 -304 0
296 -297 -298 0
-297 268 269 0
-297 -268 -269 0
297 -268 269 0
297 268 -269 0
-298 299 300 0
-298 299 301 0
298 -299 0
298 -300 -301 0
299 -500 -504 -508 -510 0
-299 510 0
-299 500 0
-299 508 0
-299 504 0
300 -494 -497 0
-300 494 0
-300 497 0
-301 -302 -303 0
-301 302 303 0
301 302 -303 0
301 -302 303 0
302 -500 -504 0
-302 500 0
-302 504 0
303 -508 -510 0
-303 508 0
-303 510 0
-304 -305 -306 0
-304 305 306 0
304 305 -306 0
304 -305 306 0
305 -494 -499 0
-305 494 0
-305 499 0
306 -498 -507 0
-306 498 0
-306 507 0
307 -305 -306 0
-307 305 0
-307 306 0
-308 -286 -287 0
-308 286 287 0
308 286 -287 0
308 -286 287 0
309 -310 -311 0
-309 310 0
-309 311 0
-310 -288 -290 0
-310 288 290 0
310 288 -290 0
310 -288 290 0
311 -312 -313 0
-311 312 0
-311 313 0
-312 291 293 0
-312 -291 -293 0
312 -291 293 0
312 291 -293 0
313 -314 -316 0
-313 314 0
-313 316 0
-314 307 315 0
-314 -307 -315 0
314 -307 315 0
314 307 -315 0
-315 294 296 0
-315 -294 -296 0
315 -294 296 0
315 294 -296 0
316 -317 -319 0
-316 317 0
-316 319 0
-317 304 318 0
-317 -304 -318 0
317 -304 318 0
317 304 -318 0
-318 297 298 0
-318 -297 -298 0
318 -297 298 0
318 297 -298 0
-319 320 321 0
-319 321 325 0
-319 320 325 0
319 -321 -325 0
319 -320 -321 0
319 -320 -325 0
-320 300 301 0
-320 -300 -301 0
320 -300 301 0
320 300 -301 0
-321 322 324 0
-321 323 324 0
-321 322 323 0
321 -322 -323 0
321 -323 -324 0
321 -322 -324 0
322 -500 -508 0
-322 500 0
-322 508 0
323 -494 -510 0
-323 494 0
-323 510 0
324 -497 -507 0
-324 497 0
-324 507 0
325 -499 -507 0
-325 499 0
-325 507 0
326 -281 -327 308 -309 0
326 -281 -327 -308 309 0
-326 327 0
-326 -308 -309 0
-326 281 0
-326 308 309 0
-327 -284 -285 0
-327 284 285 0
327 284 -285 0
327 -284 285 0
328 -310 311 -329 -330 0
328 310 -311 -329 -330 0
-328 329 0
-328 -310 -311 0
-328 330 0
-328 310 311 0
-329 -312 -313 0
-329 312 313 0
329 312 -313 0
329 -312 313 0
330 -314 317 -319 -331 0
330 -314 -317 319 -331 0
-330 331 0
-330 317 319 0
-330 314 0
-330 -317 -319 0
331 325 -332 -333 -335 0
331 -325 332 -333 -335 0
-331 333 0
-331 325 332 0
-331 335 0
-331 -325 -332 0
-332 320 321 0
-332 -320 -321 0
332 -320 321 0
332 320 -321 0
-333 324 334 0
-333 -324 -334 0
333 -324 334 0
333 324 -334 0
-334 -322 -323 0
-334 322 323 0
334 322 -323 0
334 -322 323 0
335 -494 -500 -507 -510 0
-335 510 0
-335 494 0
-335 507 0
-335 500 0
-336 8 337 0
-336 337 339 0
-336 8 339 0
336 -337 -339 0
336 -8 -337 0
336 -8 -339 0
-337 11 338 0
-337 10 11 0
-337 10 338 0
337 -10 -11 0
337 -11 -338 0
337 -10 -338 0
-338 18 20 0
-338 19 20 0
-338 18 19 0
338 -18 -19 0
338 -19 -20 0
338 -18 -20 0
-339 340 341 0
-339 341 349 0
-339 340 349 0
339 -340 -349 0
339 -341 -349 0
339 -340 -341 0
-340 16 338 0
-340 -16 -338 0
340 -16 338 0
340 16 -338 0
-341 342 343 0
-341 343 345 0
-341 342 345 0
341 -342 -345 0
341 -343 -345 0
341 -342 -343 0
-342 29 39 0
-342 31 39 0
-342 29 31 0
342 -29 -31 0
342 -31 -39 0
342 -29 -39 0
-343 19 344 0
-343 -19 -344 0
343 -19 344 0
343 19 -344 0
-344 -18 -20 0
-344 18 20 0
344 18 -20 0
344 -18 20 0
-345 30 346 0
-345 346 347 0
-345 30 347 0
345 -346 -347 0
345 -30 -346 0
345 -30 -347 0
-346 501 51 0
-346 498 44 0
-346 44 51 0
-346 501 44 0
-346 498 51 0
346 -44 -51 0
346 -498 -501 -51 0
346 -498 -501 -44 0
-347 29 348 0
-347 -29 -348 0
347 -29 348 0
347 29 -348 0
-348 -31 -39 0
-348 31 39 0
348 31 -39 0
348 -31 39 0
-349 350 352 0
-349 352 362 0
-349 350 362 0
349 -350 -362 0
349 -352 -362 0
349 -350 -352 0
-350 345 351 0
-350 -345 -351 0
350 -345 351 0
350 345 -351 0
-351 342 343 0
-351 -342 -343 0
351 -342 343 0
351 342 -343 0
-352 353 355 0
-352 355 357 0
-352 353 357 0
352 -353 -357 0
352 -355 -357 0
352 -353 -355 0
-353 50 354 0
-353 49 50 0
-353 49 354 0
353 -49 -50 0
353 -50 -354 0
353 -49 -354 0
-354 68 75 0
-354 69 75 0
-354 68 69 0
354 -68 -69 0
354 -69 -75 0
354 -68 -75 0
-355 347 356 0
-355 -347 -356 0
355 -347 356 0
355 347 -356 0
-356 30 346 0
-356 -30 -346 0
356 -30 346 0
356 30 -346 0
-357 358 359 0
-357 359 361 0
-357 358 361 0
357 -358 -361 0
357 -359 -361 0
357 -358 -359 0
-358 70 74 0
-358 73 74 0
-358 70 73 0
358 -70 -73 0
358 -73 -74 0
358 -70 -74 0
-359 44 360 0
-359 -44 -360 0
359 -44 360 0
359 44 -360 0
-360 -43 -51 0
-360 43 51 0
360 43 -51 0
360 -43 51 0
-361 52 354 0
-361 -52 -354 0
361 -52 354 0
361 52 -354 0
-362 363 365 0
-362 365 384 0
-362 363 384 0
362 -363 -384 0
362 -365 -384 0
362 -363 -365 0
-363 357 364 0
-363 -357 -364 0
363 -357 364 0
363 357 -364 0
-364 353 355 0
-364 -353 -355 0
364 -353 355 0
364 353 -355 0
-365 366 371 0
-365 371 373 0
-365 366 373 0
365 -366 -373 0
365 -371 -373 0
365 -366 -371 0
-366 367 368 0
-366 368 369 0
-366 367 369 0
366 -367 -369 0
366 -368 -369 0
366 -367 -368 0
-367 93 110 0
-367 97 110 0
-367 93 97 0
367 -93 -97 0
367 -97 -110 0
367 -93 -110 0
-368 98 109 0
-368 108 109 0
-368 98 108 0
368 -98 -108 0
368 -108 -109 0
368 -98 -109 0
-369 69 370 0
-369 -69 -370 0
369 -69 370 0
369 69 -370 0
-370 -68 -75 0
-370 68 75 0
370 68 -75 0
370 -68 75 0
-371 361 372 0
-371 -361 -372 0
371 -361 372 0
371 361 -372 0
-372 358 359 0
-372 -358 -359 0
372 -358 359 0
372 358 -359 0
-373 374 376 0
-373 376 378 0
-373 374 378 0
373 -374 -378 0
373 -376 -378 0
373 -374 -376 0
-374 74 375 0
-374 -74 -375 0
374 -74 375 0
374 74 -375 0
-375 -70 -73 0
-375 70 73 0
375 70 -73 0
375 -70 73 0
-376 99 377 0
-376 94 99 0
-376 94 377 0
376 -94 -99 0
376 -99 -377 0
376 -94 -377 0
-377 135 146 0
-377 137 146 0
-377 135 137 0
377 -135 -137 0
377 -137 -146 0
377 -135 -146 0
-378 379 380 0
-378 380 382 0
-378 379 382 0
378 -379 -382 0
378 -380 -382 0
378 -379 -380 0
-379 509 144 0
-379 508 136 0
-379 136 144 0
-379 509 136 0
-379 508 144 0
379 -136 -144 0
379 -508 -509 -144 0
379 -508 -509 -136 0
-380 108 381 0
-380 -108 -381 0
380 -108 381 0
380 108 -381 0
-381 -98 -109 0
-381 98 109 0
381 98 -109 0
381 -98 109 0
-382 97 383 0
-382 -97 -383 0
382 -97 383 0
382 97 -383 0
-383 -93 -110 0
-383 93 110 0
383 93 -110 0
383 -93 110 0
-384 385 401 0
-384 401 403 0
-384 385 403 0
384 -385 -403 0
384 -401 -403 0
384 -385 -401 0
-385 386 388 0
-385 388 399 0
-385 386 399 0
385 -386 -399 0
385 -388 -399 0
385 -386 -388 0
-386 369 387 0
-386 -369 -387 0
386 -369 387 0
386 369 -387 0
-387 367 368 0
-387 -367 -368 0
387 -367 368 0
387 367 -368 0
-388 389 391 0
-388 391 393 0
-388 389 393 0
388 -389 -393 0
388 -391 -393 0
388 -389 -391 0
-389 124 390 0
-389 124 128 0
-389 128 390 0
389 -128 -390 0
389 -124 -390 0
389 -124 -128 0
-390 506 183 0
-390 497 182 0
-390 182 183 0
-390 506 182 0
-390 497 183 0
390 -182 -183 0
390 -497 -506 -183 0
390 -497 -506 -182 0
-391 377 392 0
-391 -377 -392 0
391 -377 392 0
391 377 -392 0
-392 -94 -99 0
-392 94 99 0
392 94 -99 0
392 -94 99 0
-393 394 395 0
-393 395 397 0
-393 394 397 0
393 -394 -397 0
393 -395 -397 0
393 -394 -395 0
-394 171 181 0
-394 172 181 0
-394 171 172 0
394 -171 -172 0
394 -172 -181 0
394 -171 -181 0
-395 144 396 0
-395 -144 -396 0
395 -144 396 0
395 144 -396 0
-396 -136 -145 0
-396 136 145 0
396 136 -145 0
396 -136 145 0
-397 135 398 0
-397 -135 -398 0
397 -135 398 0
397 135 -398 0
-398 -137 -146 0
-398 137 146 0
398 137 -146 0
398 -137 146 0
-399 378 400 0
-399 -378 -400 0
399 -378 400 0
399 378 -400 0
-400 374 376 0
-400 -374 -376 0
400 -374 376 0
400 374 -376 0
-401 373 402 0
-401 -373 -402 0
401 -373 402 0
401 373 -402 0
-402 366 371 0
-402 -366 -371 0
402 -366 371 0
402 366 -371 0
-403 404 418 0
-403 418 420 0
-403 404 420 0
403 -404 -420 0
403 -418 -420 0
403 -404 -418 0
-404 405 407 0
-404 407 416 0
-404 405 416 0
404 -405 -416 0
404 -407 -416 0
404 -405 -407 0
-405 382 406 0
-405 -382 -406 0
405 -382 406 0
405 382 -406 0
-406 379 380 0
-406 -379 -380 0
406 -379 380 0
406 379 -380 0
-407 408 409 0
-407 409 411 0
-407 408 411 0
407 -408 -411 0
407 -409 -411 0
407 -408 -409 0
-408 164 173 0
-408 130 164 0
-408 130 173 0
408 -130 -164 0
408 -164 -173 0
408 -130 -173 0
-409 390 410 0
-409 -390 -410 0
409 -390 410 0
409 390 -410 0
-410 -124 -128 0
-410 124 128 0
410 124 -128 0
410 -124 128 0
-411 412 413 0
-411 413 414 0
-411 412 414 0
411 -412 -414 0
411 -413 -414 0
411 -412 -413 0
-412 165 217 0
-412 216 217 0
-412 165 216 0
412 -165 -216 0
412 -216 -217 0
412 -165 -217 0
-413 206 208 0
-413 207 208 0
-413 206 207 0
413 -206 -207 0
413 -207 -208 0
413 -206 -208 0
-414 182 415 0
-414 -182 -415 0
414 -182 415 0
414 182 -415 0
-415 -129 -183 0
-415 129 183 0
415 129 -183 0
415 -129 183 0
-416 393 417 0
-416 -393 -417 0
416 -393 417 0
416 393 -417 0
-417 389 391 0
-417 -389 -391 0
417 -389 391 0
417 389 -391 0
-418 399 419 0
-418 -399 -419 0
418 -399 419 0
418 399 -419 0
-419 386 388 0
-419 -386 -388 0
419 -386 388 0
419 386 -388 0
-420 421 433 0
-420 433 435 0
-420 421 435 0
420 -421 -435 0
420 -433 -435 0
420 -421 -433 0
-421 422 424 0
-421 424 431 0
-421 422 431 0
421 -422 -431 0
421 -424 -431 0
421 -422 -424 0
-422 397 423 0
-422 -397 -423 0
422 -397 423 0
422 397 -423 0
-423 394 395 0
-423 -394 -395 0
423 -394 395 0
423 394 -395 0
-424 425 427 0
-424 427 429 0
-424 425 429 0
424 -425 -429 0
424 -427 -429 0
424 -425 -427 0
-425 171 426 0
-425 -171 -426 0
425 -171 426 0
425 171 -426 0
-426 -172 -181 0
-426 172 181 0
426 172 -181 0
426 -172 181 0
-427 130 428 0
-427 -130 -428 0
427 -130 428 0
427 130 -428 0
-428 -164 -173 0
-428 164 173 0
428 164 -173 0
428 -164 173 0
-429 166 430 0
-429 166 199 0
-429 199 430 0
429 -199 -430 0
429 -166 -430 0
429 -166 -199 0
-430 200 278 0
-430 247 278 0
-430 200 247 0
430 -200 -247 0
430 -247 -278 0
430 -200 -278 0
-431 411 432 0
-431 -411 -432 0
431 -411 432 0
431 411 -432 0
-432 408 409 0
-432 -408 -409 0
432 -408 409 0
432 408 -409 0
-433 416 434 0
-433 -416 -434 0
433 -416 434 0
433 416 -434 0
-434 405 407 0
-434 -405 -407 0
434 -405 407 0
434 405 -407 0
-435 436 447 0
-435 447 449 0
-435 436 449 0
435 -436 -449 0
435 -447 -449 0
435 -436 -447 0
-436 437 439 0
-436 439 445 0
-436 437 445 0
436 -437 -445 0
436 -439 -445 0
436 -437 -439 0
-437 414 438 0
-437 -414 -438 0
437 -414 438 0
437 414 -438 0
-438 412 413 0
-438 -412 -413 0
438 -412 413 0
438 412 -413 0
-439 440 442 0
-439 442 444 0
-439 440 444 0
439 -440 -444 0
439 -442 -444 0
439 -440 -442 0
-440 207 441 0
-440 -207 -441 0
440 -207 441 0
440 207 -441 0
-441 -206 -208 0
-441 206 208 0
441 206 -208 0
441 -206 208 0
-442 216 443 0
-442 -216 -443 0
442 -216 443 0
442 216 -443 0
-443 -165 -217 0
-443 165 217 0
443 165 -217 0
443 -165 217 0
-444 238 246 0
-444 245 246 0
-444 238 245 0
444 -238 -245 0
444 -245 -246 0
444 -238 -246 0
-445 429 446 0
-445 -429 -446 0
445 -429 446 0
445 429 -446 0
-446 425 427 0
-446 -425 -427 0
446 -425 427 0
446 425 -427 0
-447 431 448 0
-447 -431 -448 0
447 -431 448 0
447 431 -448 0
-448 422 424 0
-448 -422 -424 0
448 -422 424 0
448 422 -424 0
-449 450 459 0
-449 459 461 0
-449 450 461 0
449 -450 -461 0
449 -459 -461 0
449 -450 -459 0
-450 451 453 0
-450 453 457 0
-450 451 457 0
450 -451 -457 0
450 -453 -457 0
450 -451 -453 0
-451 430 452 0
-451 -430 -452 0
451 -430 452 0
451 430 -452 0
-452 -166 -199 0
-452 166 199 0
452 166 -199 0
452 -166 199 0
-453 201 454 0
-453 454 455 0
-453 201 455 0
453 -201 -455 0
453 -454 -455 0
453 -201 -454 0
-454 239 276 0
-454 274 276 0
-454 239 274 0
454 -239 -274 0
454 -274 -276 0
454 -239 -276 0
-455 247 456 0
-455 -247 -456 0
455 -247 456 0
455 247 -456 0
-456 -200 -278 0
-456 200 278 0
456 200 -278 0
456 -200 278 0
-457 444 458 0
-457 -444 -458 0
457 -444 458 0
457 444 -458 0
-458 440 442 0
-458 -440 -442 0
458 -440 442 0
458 440 -442 0
-459 445 460 0
-459 -445 -460 0
459 -445 460 0
459 445 -460 0
-460 437 439 0
-460 -437 -439 0
460 -437 439 0
460 437 -439 0
-461 462 467 0
-461 467 469 0
-461 462 469 0
461 -462 -469 0
461 -467 -469 0
461 -462 -467 0
-462 463 464 0
-462 464 465 0
-462 463 465 0
462 -463 -465 0
462 -464 -465 0
462 -463 -464 0
-463 238 244 0
-463 -238 -244 0
463 -238 244 0
463 238 -244 0
-464 267 275 0
-464 240 267 0
-464 240 275 0
464 -240 -267 0
464 -267 -275 0
464 -240 -275 0
-465 455 466 0
-465 -455 -466 0
465 -455 466 0
465 455 -466 0
-466 201 454 0
-466 -201 -454 0
466 -201 454 0
466 201 -454 0
-467 457 468 0
-467 -457 -468 0
467 -457 468 0
467 457 -468 0
-468 451 453 0
-468 -451 -453 0
468 -451 453 0
468 451 -453 0
-469 470 476 0
-469 476 478 0
-469 470 478 0
469 -470 -478 0
469 -476 -478 0
469 -470 -476 0
-470 471 472 0
-470 472 474 0
-470 471 474 0
470 -471 -474 0
470 -472 -474 0
470 -471 -472 0
-471 499 306 0
-471 494 268 0
-471 268 306 0
-471 499 268 0
-471 494 306 0
471 -268 -306 0
471 -494 -499 -306 0
471 -494 -499 -268 0
-472 274 473 0
-472 -274 -473 0
472 -274 473 0
472 274 -473 0
-473 -239 -276 0
-473 239 276 0
473 239 -276 0
473 -239 276 0
-474 240 475 0
-474 -240 -475 0
474 -240 475 0
474 240 -475 0
-475 -267 -275 0
-475 267 275 0
475 267 -275 0
475 -267 275 0
-476 465 477 0
-476 -465 -477 0
476 -465 477 0
476 465 -477 0
-477 463 464 0
-477 -463 -464 0
477 -463 464 0
477 463 -464 0
-478 479 482 0
-478 482 484 0
-478 479 484 0
478 -479 -484 0
478 -482 -484 0
478 -479 -482 0
-479 269 480 0
-479 269 299 0
-479 299 480 0
479 -299 -480 0
479 -269 -480 0
479 -269 -299 0
-480 305 481 0
-480 -305 -481 0
480 -305 481 0
480 305 -481 0
-481 -268 -306 0
-481 268 306 0
481 268 -306 0
481 -268 306 0
-482 474 483 0
-482 -474 -483 0
482 -474 483 0
482 474 -483 0
-483 471 472 0
-483 -471 -472 0
483 -471 472 0
483 471 -472 0
-484 485 487 0
-484 487 489 0
-484 485 489 0
484 -485 -489 0
484 -487 -489 0
484 -485 -487 0
-485 497 486 0
-485 494 325 0
-485 325 486 0
-485 497 325 0
-485 494 486 0
485 -325 -486 0
485 -494 -497 -486 0
485 -494 -497 -325 0
486 -323 -324 0
-486 323 0
-486 324 0
-487 480 488 0
-487 -480 -488 0
487 -480 488 0
487 480 -488 0
-488 -269 -299 0
-488 269 299 0
488 269 -299 0
488 -269 299 0
-489 301 490 0
-489 490 492 0
-489 301 492 0
489 -301 -492 0
489 -490 -492 0
489 -301 -490 0
-490 486 491 0
-490 -486 -491 0
490 -486 491 0
490 486 -491 0
-491 -300 -325 0
-491 300 325 0
491 300 -325 0
491 -300 325 0
-492 335 493 0
-492 322 335 0
-492 322 493 0
492 -322 -335 0
492 -335 -493 0
492 -322 -493 0
-493 -323 -324 0
-493 323 324 0
493 323 -324 0
493 -323 324 0
-512 0
2 0

